# 53522
param k := 6;
param n := 60;
param s := 1;
set E :=  (0,25) (1,45) (2,11) (2,15) (2,24) (3,9) (3,10) (3,12) (3,19) (3,28) (3,49) (4,6) (4,26) (4,59) (5,12) (7,25) (7,43) (8,10) (8,57) (10,18) (10,50) (10,51) (10,59) (11,41) (11,53) (11,56) (12,31) (12,38) (12,44) (13,44) (14,22) (14,38) (16,56) (17,25) (19,32) (19,42) (19,45) (20,42) (21,28) (23,27) (23,48) (23,58) (25,35) (28,30) (29,31) (29,43) (31,40) (33,53) (34,43) (35,36) (37,56) (38,39) (39,52) (39,55) (39,56) (41,47) (41,48) (44,54) (46,58);